; oracle GBLG
; lemma foo
(push 1)
(assert (not (=> (and (randomness-mapping-GBLG state-left state-right return-left-gate-GBLG return-right-simgate-GBLG arg-GBLG-h arg-GBLG-l arg-GBLG-r arg-GBLG-op arg-GBLG-j)
 (invariant-GBLG state-left state-right return-left-gate-GBLG return-right-simgate-GBLG arg-GBLG-h arg-GBLG-l arg-GBLG-r arg-GBLG-op arg-GBLG-j)
)
 (foo state-left state-right return-left-gate-GBLG return-right-simgate-GBLG arg-GBLG-h arg-GBLG-l arg-GBLG-r arg-GBLG-op arg-GBLG-j)
)
)
)
(check-sat)
(pop 1)
; lemma bar
(push 1)
(assert (not (=> (and (randomness-mapping-GBLG state-left state-right return-left-gate-GBLG return-right-simgate-GBLG arg-GBLG-h arg-GBLG-l arg-GBLG-r arg-GBLG-op arg-GBLG-j)
 (invariant-GBLG state-left state-right return-left-gate-GBLG return-right-simgate-GBLG arg-GBLG-h arg-GBLG-l arg-GBLG-r arg-GBLG-op arg-GBLG-j)
 (foo state-left state-right return-left-gate-GBLG return-right-simgate-GBLG arg-GBLG-h arg-GBLG-l arg-GBLG-r arg-GBLG-op arg-GBLG-j)
)
 (bar state-left state-right return-left-gate-GBLG return-right-simgate-GBLG arg-GBLG-h arg-GBLG-l arg-GBLG-r arg-GBLG-op arg-GBLG-j)
)
)
)
(check-sat)
(pop 1)
